
******************************************************************************
This program contains Ipopt, a library for large-scale nonlinear optimization.
 Ipopt is released as open source code under the Eclipse Public License (EPL).
         For more information visit http://projects.coin-or.org/Ipopt
******************************************************************************

This is Ipopt version 3.12.6, running with linear solver ma57.

Number of nonzeros in equality constraint Jacobian...:        0
Number of nonzeros in inequality constraint Jacobian.:        0
Number of nonzeros in Lagrangian Hessian.............:     8999

Total number of variables............................:     3000
                     variables with only lower bounds:        0
                variables with lower and upper bounds:        0
                     variables with only upper bounds:        0
Total number of equality constraints.................:        0
Total number of inequality constraints...............:        0
        inequality constraints with only lower bounds:        0
   inequality constraints with lower and upper bounds:        0
        inequality constraints with only upper bounds:        0

iter    objective    inf_pr   inf_du lg(mu)  ||d||  lg(rg) alpha_du alpha_pr  ls
   0  1.5173907e+05 0.00e+00 1.00e+02  -1.0 0.00e+00    -  0.00e+00 0.00e+00   0
   1  6.5307532e+04 0.00e+00 4.85e+01  -1.0 3.33e-01   2.0 1.00e+00 1.00e+00f  1
   2  2.4704830e+04 0.00e+00 2.12e+01  -1.0 3.87e-01   1.5 1.00e+00 1.00e+00f  1
   3  8.7682397e+03 0.00e+00 8.64e+00  -1.0 4.93e-01   1.0 1.00e+00 1.00e+00f  1
   4  5.0326729e+03 0.00e+00 5.20e+00  -1.0 1.59e-01   1.5 1.00e+00 1.00e+00f  1
   5  2.3963712e+03 0.00e+00 2.63e+00  -1.0 2.11e-01   1.0 1.00e+00 1.00e+00f  1
   6  1.0119010e+03 0.00e+00 1.25e+00  -1.0 2.51e-01   0.5 1.00e+00 1.00e+00f  1
   7  3.7184883e+02 0.00e+00 5.70e-01  -1.0 3.53e-01   0.0 1.00e+00 1.00e+00f  1
   8  2.0384012e+02 0.00e+00 3.73e-01  -1.7 1.21e-01   0.5 1.00e+00 1.00e+00f  1
   9  7.2820327e+01 0.00e+00 1.98e-01  -1.7 1.77e-01  -0.0 1.00e+00 1.00e+00f  1
iter    objective    inf_pr   inf_du lg(mu)  ||d||  lg(rg) alpha_du alpha_pr  ls
  10  1.5634284e+01 0.00e+00 8.51e-02  -2.5 2.23e-01  -0.5 1.00e+00 1.00e+00f  1
  11  7.8653027e+00 0.00e+00 5.58e-02  -2.5 6.34e-02  -0.1 1.00e+00 1.00e+00f  1
  12  2.9555618e+00 0.00e+00 2.49e-02  -2.5 7.53e-02  -0.5 1.00e+00 1.00e+00f  1
  13  1.3718094e+00 0.00e+00 1.09e-02  -3.8 7.90e-02  -1.0 1.00e+00 1.00e+00f  1
  14  1.0600660e+00 0.00e+00 4.20e-03  -3.8 7.93e-02  -1.5 1.00e+00 1.00e+00f  1
  15  1.0119251e+00 0.00e+00 1.91e-03  -3.8 1.79e-01  -2.0 1.00e+00 1.00e+00f  1
  16  1.0003313e+00 0.00e+00 6.39e-04  -3.8 1.78e+00    -  1.00e+00 1.00e+00f  1
  17  1.0000042e+00 0.00e+00 1.11e-04  -5.7 7.07e-02    -  1.00e+00 1.00e+00f  1
  18  1.0000000e+00 0.00e+00 5.45e-07  -5.7 1.48e-02    -  1.00e+00 1.00e+00f  1
  19  1.0000000e+00 0.00e+00 1.29e-13  -8.6 6.93e-05    -  1.00e+00 1.00e+00f  1

Number of Iterations....: 19

                                   (scaled)                 (unscaled)
Objective...............:   6.5605318403904789e-01    1.0000000000000000e+00
Dual infeasibility......:   1.2893155372312345e-13    1.9652606962341869e-13
Constraint violation....:   0.0000000000000000e+00    0.0000000000000000e+00
Complementarity.........:   0.0000000000000000e+00    0.0000000000000000e+00
Overall NLP error.......:   1.2893155372312345e-13    1.9652606962341869e-13


Number of objective function evaluations             = 20
Number of objective gradient evaluations             = 20
Number of equality constraint evaluations            = 0
Number of inequality constraint evaluations          = 0
Number of equality constraint Jacobian evaluations   = 0
Number of inequality constraint Jacobian evaluations = 0
Number of Lagrangian Hessian evaluations             = 19
Total CPU secs in IPOPT (w/o function evaluations)   =      0.067
Total CPU secs in NLP function evaluations           =      0.030

EXIT: Optimal Solution Found.
Note: The following floating-point exceptions are signalling: IEEE_UNDERFLOW_FLAG IEEE_DENORMAL

 ** SUBROUTINE CUTEST_csetup: Warning. The problem has no general constraints. 
 ** Other tools may be preferable ** 

************************ CUTEst statistics ************************


 Package used            :  IPOPT
 Problem                 :  DIXMAANH  
 # variables             =            3000
 # constraints           =               0
 # objective functions   =        0.4100000E+02
 # objective gradients   =        0.2100000E+02
 # objective Hessians    =        0.2000000E+02
 # Hessian-vector prdct  =        0.0000000E+00
 # constraints functions =        0.0000000E+00
 # constraints gradients =        0.0000000E+00
 # constraints Hessians  =        0.0000000E+00
 Exit code               =               0
 Final f                 =   0.1000000E+01
 Set up time             =            0.05 seconds
 Solve time              =            0.29 seconds


******************************************************************

System Time =       0.0729999989 s.
